40164 38075 
39438 38718 
40770 37535 
40044 38178 
41158 37344 
40753 37678 
39975 38286 
39954 38545 
39113 39084 
38725 39275 
38240 39483 
38600 39344 
39412 38839 
38358 39419 
37925 39491 
37911 39524 
37831 39571 
37012 39825 
37628 39659 
37232 39805 
37706 39603 
37422 39695 
37617 39665 
37409 39736 
37521 39669 
37883 39534 
37724 39581 
36905 39835 
